HFSDDW
20	6	2
0	34	1	77
0	44	1	16
0	69	1	80
0	75	1	74
0	70	1	32
0	91	1	45
0	12	1	11
0	75	1	77
0	32	1	24
0	29	1	8
0	54	1	48
0	52	1	86
0	57	1	43
0	59	1	14
0	99	1	62
0	67	1	51
0	42	1	73
0	19	1	47
0	43	1	58
0	28	1	16
LBCmax: 362
RELDUE
-1	176	2	6
-1	301	7	1
-1	136	6	4
-1	128	1	4
-1	200	9	3
-1	132	4	7
-1	141	9	2
-1	292	7	6
-1	215	4	4
-1	269	5	5
-1	283	3	7
-1	298	6	3
-1	325	8	8
-1	272	5	7
-1	240	2	3
-1	297	2	8
-1	164	9	1
-1	232	9	7
-1	236	2	1
-1	166	4	1
DDW
172	180
253	349
110	162
122	134
184	216
129	135
114	168
239	345
172	258
218	320
252	314
247	349
315	335
264	280
192	288
267	327
131	197
209	255
222	250
138	194
